
Gurobi 13.0.1 (win64) logging started Thu Apr 23 20:36:06 2026

Set parameter LogFile to value "C:\Users\David\OneDrive\TAIDUC\0. DATASET. MATERIAL\Optimization , Simulation, Operation Research - Exercise & Problem\Procurement - Vendor quantity selection\debugs\logs\01_baseline_20260423_2036.log"
Gurobi Optimizer version 13.0.1 build v13.0.1rc0 (win64 - Windows 11+.0 (26200.2))

CPU model: Intel(R) Core(TM) i5-8265U CPU @ 1.60GHz, instruction set [SSE2|AVX|AVX2]
Thread count: 4 physical cores, 8 logical processors, using up to 8 threads

Non-default parameters:
LogToConsole  0

Optimize a model with 730 rows, 388 columns and 1746 nonzeros (Min)
Model fingerprint: 0xc4467fde
Model has 194 linear objective coefficients
Variable types: 194 continuous, 194 integer (194 binary)
Coefficient statistics:
  Matrix range     [1e+00, 1e+05]
  Objective range  [6e+00, 2e+01]
  Bounds range     [1e+00, 1e+00]
  RHS range        [1e+00, 2e+05]

Presolve removed 196 rows and 304 columns
Presolve time: 0.00s

Explored 0 nodes (0 simplex iterations) in 0.00 seconds (0.00 work units)
Thread count was 1 (of 8 available processors)

Solution count 0

Model is infeasible
Best objective -, best bound -, gap -
Gurobi Optimizer version 13.0.1 build v13.0.1rc0 (win64 - Windows 11+.0 (26200.2))

CPU model: Intel(R) Core(TM) i5-8265U CPU @ 1.60GHz, instruction set [SSE2|AVX|AVX2]
Thread count: 4 physical cores, 8 logical processors, using up to 8 threads

Non-default parameters:
LogToConsole  0


Solve phase I feasrelax model to determine minimal relaxation

Optimize a model with 722 rows, 398 columns and 1562 nonzeros (Min)
Model fingerprint: 0xd778cdf3
Model has 10 linear objective coefficients
Variable types: 204 continuous, 194 integer (194 binary)
Coefficient statistics:
  Matrix range     [1e+00, 1e+05]
  Objective range  [1e+00, 1e+00]
  Bounds range     [1e+00, 1e+00]
  RHS range        [1e+00, 1e+04]

Found heuristic solution: objective 58820.000000
Presolve removed 722 rows and 398 columns
Presolve time: 0.01s
Presolve: All rows and columns removed

Explored 0 nodes (0 simplex iterations) in 0.01 seconds (0.00 work units)
Thread count was 1 (of 8 available processors)

Solution count 2: 47120 58820 

Optimal solution found (tolerance 1.00e-04)
Best objective 4.712000000000e+04, best bound 4.712000000000e+04, gap 0.0000%
Set parameter LogToConsole to value 0
Gurobi Optimizer version 13.0.1 build v13.0.1rc0 (win64 - Windows 11+.0 (26200.2))

CPU model: Intel(R) Core(TM) i5-8265U CPU @ 1.60GHz, instruction set [SSE2|AVX|AVX2]
Thread count: 4 physical cores, 8 logical processors, using up to 8 threads

Non-default parameters:
LogToConsole  0


Solve phase I feasrelax model to determine minimal relaxation

Optimize a model with 730 rows, 1053 columns and 2411 nonzeros (Min)
Model fingerprint: 0x596c5ae5
Model has 665 linear objective coefficients
Variable types: 859 continuous, 194 integer (194 binary)
Coefficient statistics:
  Matrix range     [1e+00, 1e+05]
  Objective range  [1e+01, 2e+03]
  Bounds range     [1e+00, 1e+00]
  RHS range        [1e+00, 2e+05]

Found heuristic solution: objective 1.554900e+08
Presolve removed 199 rows and 196 columns
Presolve time: 0.01s
Presolved: 531 rows, 857 columns, 1977 nonzeros
Variable types: 663 continuous, 194 integer (194 binary)

Root relaxation: objective 2.749997e+01, 282 iterations, 0.01 seconds (0.00 work units)

    Nodes    |    Current Node    |     Objective Bounds      |     Work
 Expl Unexpl |  Obj  Depth IntInf | Incumbent    BestBd   Gap | It/Node Time

     0     0   27.49997    0   20 1.5549e+08   27.49997   100%     -    0s
H    0     0                    7.068000e+07   27.49997   100%     -    0s
H    0     0                    2.308007e+07   27.49997   100%     -    0s
H    0     0                    1.951610e+07   27.49997   100%     -    0s
     0     0   90.54416    0   24 1.9516e+07   90.54416   100%     -    0s
H    0     0                    1.439158e+07   90.54416   100%     -    0s
H    0     0                    5580140.0000   90.54416   100%     -    0s
H    0     0                    4616120.0000   93.87750   100%     -    0s
     0     0   93.87750    0   23 4616120.00   93.87750   100%     -    0s
H    0     0                    4264462.4431   93.87750   100%     -    0s
     0     0  113.52012    0   22 4264462.44  113.52012   100%     -    0s
H    0     0                    730200.00000  113.69333   100%     -    0s
     0     0  121.72667    0   16 730200.000  121.72667   100%     -    0s
     0     0  121.72667    0   13 730200.000  121.72667   100%     -    0s
H    0     0                     160.0000000  121.72667  23.9%     -    0s
     0     0  124.30071    0    7  160.00000  124.30071  22.3%     -    0s
     0     0  131.13706    0   10  160.00000  131.13706  18.0%     -    0s
     0     0  131.88778    0   10  160.00000  131.88778  17.6%     -    0s
     0     0  140.73778    0    8  160.00000  140.73778  12.0%     -    0s
     0     0  142.02111    0   11  160.00000  142.02111  11.2%     -    0s
     0     0  142.02111    0   11  160.00000  142.02111  11.2%     -    0s
     0     0  142.02111    0   11  160.00000  142.02111  11.2%     -    0s
     0     0  149.51000    0   10  160.00000  149.51000  6.56%     -    0s
     0     0  149.51000    0   10  160.00000  149.51000  6.56%     -    0s
     0     0  149.51000    0    2  160.00000  149.51000  6.56%     -    0s
     0     0  149.51000    0    5  160.00000  149.51000  6.56%     -    0s
     0     0  149.51000    0    6  160.00000  149.51000  6.56%     -    0s
     0     0  149.51000    0    6  160.00000  149.51000  6.56%     -    0s
     0     0  149.51000    0    6  160.00000  149.51000  6.56%     -    0s
     0     0  149.51000    0    6  160.00000  149.51000  6.56%     -    0s
     0     2  149.51000    0    6  160.00000  149.51000  6.56%     -    0s

Cutting planes:
  Gomory: 8
  Cover: 12
  MIR: 43
  Flow cover: 10
  GUB cover: 1
  RLT: 5

Explored 249 nodes (2474 simplex iterations) in 0.36 seconds (0.08 work units)
Thread count was 8 (of 8 available processors)

Solution count 10: 160 730200 4.26446e+06 ... 1.5549e+08

Optimal solution found (tolerance 1.00e-04)
Best objective 1.600000000000e+02, best bound 1.600000000000e+02, gap 0.0000%
Set parameter LogToConsole to value 0

Gurobi 13.0.1 (win64) logging started Thu Apr 23 20:36:44 2026

Set parameter LogFile to value "C:\Users\David\OneDrive\TAIDUC\0. DATASET. MATERIAL\Optimization , Simulation, Operation Research - Exercise & Problem\Procurement - Vendor quantity selection\debugs\logs\01_baseline_20260423_2036.log"
Gurobi Optimizer version 13.0.1 build v13.0.1rc0 (win64 - Windows 11+.0 (26200.2))

CPU model: Intel(R) Core(TM) i5-8265U CPU @ 1.60GHz, instruction set [SSE2|AVX|AVX2]
Thread count: 4 physical cores, 8 logical processors, using up to 8 threads

Non-default parameters:
LogToConsole  0

Optimize a model with 730 rows, 388 columns and 1746 nonzeros (Min)
Model fingerprint: 0x7f4ecd18
Model has 194 linear objective coefficients
Variable types: 194 continuous, 194 integer (194 binary)
Coefficient statistics:
  Matrix range     [1e+00, 1e+05]
  Objective range  [6e+00, 2e+01]
  Bounds range     [1e+00, 1e+00]
  RHS range        [1e+00, 2e+05]

Presolve removed 196 rows and 304 columns
Presolve time: 0.00s

Explored 0 nodes (0 simplex iterations) in 0.01 seconds (0.00 work units)
Thread count was 1 (of 8 available processors)

Solution count 0

Model is infeasible
Best objective -, best bound -, gap -
Gurobi Optimizer version 13.0.1 build v13.0.1rc0 (win64 - Windows 11+.0 (26200.2))

CPU model: Intel(R) Core(TM) i5-8265U CPU @ 1.60GHz, instruction set [SSE2|AVX|AVX2]
Thread count: 4 physical cores, 8 logical processors, using up to 8 threads

Non-default parameters:
LogToConsole  0


Solve phase I feasrelax model to determine minimal relaxation

Optimize a model with 722 rows, 398 columns and 1562 nonzeros (Min)
Model fingerprint: 0xcdbfb826
Model has 10 linear objective coefficients
Variable types: 204 continuous, 194 integer (194 binary)
Coefficient statistics:
  Matrix range     [1e+00, 1e+05]
  Objective range  [1e+00, 1e+00]
  Bounds range     [1e+00, 1e+00]
  RHS range        [1e+00, 1e+04]

Found heuristic solution: objective 58820.000000
Presolve removed 722 rows and 398 columns
Presolve time: 0.01s
Presolve: All rows and columns removed

Explored 0 nodes (0 simplex iterations) in 0.01 seconds (0.00 work units)
Thread count was 1 (of 8 available processors)

Solution count 2: 47120 58820 

Optimal solution found (tolerance 1.00e-04)
Best objective 4.712000000000e+04, best bound 4.712000000000e+04, gap 0.0000%
Set parameter LogToConsole to value 0
Gurobi Optimizer version 13.0.1 build v13.0.1rc0 (win64 - Windows 11+.0 (26200.2))

CPU model: Intel(R) Core(TM) i5-8265U CPU @ 1.60GHz, instruction set [SSE2|AVX|AVX2]
Thread count: 4 physical cores, 8 logical processors, using up to 8 threads

Non-default parameters:
LogToConsole  0


Solve phase I feasrelax model to determine minimal relaxation

Optimize a model with 730 rows, 1053 columns and 2411 nonzeros (Min)
Model fingerprint: 0xe552bf93
Model has 665 linear objective coefficients
Variable types: 859 continuous, 194 integer (194 binary)
Coefficient statistics:
  Matrix range     [1e+00, 1e+05]
  Objective range  [1e+01, 2e+03]
  Bounds range     [1e+00, 1e+00]
  RHS range        [1e+00, 2e+05]

Found heuristic solution: objective 1.554900e+08
Presolve removed 199 rows and 196 columns
Presolve time: 0.01s
Presolved: 531 rows, 857 columns, 1977 nonzeros
Variable types: 663 continuous, 194 integer (194 binary)

Root relaxation: objective 2.749997e+01, 282 iterations, 0.00 seconds (0.00 work units)

    Nodes    |    Current Node    |     Objective Bounds      |     Work
 Expl Unexpl |  Obj  Depth IntInf | Incumbent    BestBd   Gap | It/Node Time

     0     0   27.49997    0   21 1.5549e+08   27.49997   100%     -    0s
H    0     0                    7.068000e+07   27.49997   100%     -    0s
H    0     0                    1.591811e+07   27.49997   100%     -    0s
     0     0   90.65881    0   23 1.5918e+07   90.65881   100%     -    0s
H    0     0                    6880612.3127   90.65881   100%     -    0s
H    0     0                    4277140.0000   93.99214   100%     -    0s
H    0     0                    4277130.0000   93.99214   100%     -    0s
H    0     0                    3332140.0000   93.99214   100%     -    0s
     0     0   93.99214    0   22 3332140.00   93.99214   100%     -    0s
     0     0  113.52012    0   19 3332140.00  113.52012   100%     -    0s
H    0     0                    230180.00000  115.80841   100%     -    0s
     0     0  119.19528    0   18 230180.000  119.19528   100%     -    0s
     0     0  121.99036    0   14 230180.000  121.99036   100%     -    0s
H    0     0                     180.0000000  122.36770  32.0%     -    0s
H    0     0                     170.0000000  122.36770  28.0%     -    0s
H    0     0                     160.0000000  122.36770  23.5%     -    0s
     0     0  123.78774    0   16  160.00000  123.78774  22.6%     -    0s
     0     0  123.78774    0   16  160.00000  123.78774  22.6%     -    0s
     0     0  126.54658    0   13  160.00000  126.54658  20.9%     -    0s
     0     0  141.14187    0    9  160.00000  141.14187  11.8%     -    0s
     0     0  141.15788    0   12  160.00000  141.15788  11.8%     -    0s
     0     0  142.02084    0   13  160.00000  142.02084  11.2%     -    0s
     0     0  142.02090    0   13  160.00000  142.02090  11.2%     -    0s
     0     0  142.02111    0   13  160.00000  142.02111  11.2%     -    0s
     0     0  142.02111    0   15  160.00000  142.02111  11.2%     -    0s
     0     0  142.02111    0   15  160.00000  142.02111  11.2%     -    0s
     0     0  142.02111    0   15  160.00000  142.02111  11.2%     -    0s
     0     0  142.02111    0    5  160.00000  142.02111  11.2%     -    0s
     0     2  142.02111    0    5  160.00000  142.02111  11.2%     -    0s

Cutting planes:
  Gomory: 8
  Cover: 3
  MIR: 7
  Flow cover: 1
  GUB cover: 7
  Relax-and-lift: 1

Explored 3328 nodes (20203 simplex iterations) in 1.47 seconds (0.47 work units)
Thread count was 8 (of 8 available processors)

Solution count 10: 160 160 170 ... 4.27714e+06

Optimal solution found (tolerance 1.00e-04)
Best objective 1.600000000000e+02, best bound 1.600000000000e+02, gap 0.0000%
Set parameter LogToConsole to value 0
